Route #1: 10 27 51 32 23 37 65
Route #2: 29 24 59 8 7
Route #3: 11 35 49 1 19 20
Route #4: 46 50 14 4 39 53
Route #5: 44 42 36 6 34 40 64 60
Route #6: 3 57 30 61 62 9
Route #7: 63 48 25 21 55 54 22 52 45 12
Route #8: 13 58 56 15 28
Route #9: 5 17 38 43 16 41 66 2
Route #10: 31 18 26 33 47
Cost 1116